experiments/sat_smt/run/sat-r+/results/julian.res
solved=true
solvingTime=154.781768798828125
nActions=13