experiments/sat_smt/run/sat-r+/results/julian.out
Timesteps: 1
s UNSATISFIABLE
real 0.21
user 0.04
sys 0.00
Timesteps: 2
s UNSATISFIABLE
real 0.29
user 0.08
sys 0.01
Timesteps: 3
s UNSATISFIABLE
real 0.35
user 0.20
sys 0.01
Timesteps: 4
s UNSATISFIABLE
real 0.98
user 0.53
sys 0.02
Timesteps: 5
s UNSATISFIABLE
real 1.12
user 0.87
sys 0.02
Timesteps: 6
s UNSATISFIABLE
real 2.14
user 1.63
sys 0.04
Timesteps: 7
s UNSATISFIABLE
real 6.09
user 5.26
sys 0.04
Timesteps: 8
s UNSATISFIABLE
real 12.43
user 11.44
sys 0.06
Timesteps: 9
s UNSATISFIABLE
real 19.88
user 18.75
sys 0.06
Timesteps: 10
s UNSATISFIABLE
real 17.93
user 16.72
sys 0.09
Timesteps: 11
s UNSATISFIABLE
real 24.21
user 23.51
sys 0.08
Timesteps: 12
s UNSATISFIABLE
real 31.52
user 30.77
sys 0.11
Timesteps: 13
s SATISFIABLE
real 40.60
user 39.62
sys 0.12
